SECTION Graph
Nodes 123
Edges 233
E 1 111 1
E 2 112 1
E 3 11 19
E 3 112 15
E 4 5 1
E 4 42 1
E 5 7 15
E 5 43 1
E 6 7 1
E 6 47 7
E 7 44 1
E 7 48 7
E 8 9 1
E 8 105 1
E 8 111 19
E 9 106 1
E 9 110 8
E 9 112 19
E 10 11 1
E 10 100 33
E 10 109 7
E 11 110 7
E 12 13 1
E 12 77 10
E 13 74 8
E 13 80 10
E 14 15 1
E 15 74 7
E 15 96 15
E 16 17 10
E 16 83 8
E 16 86 4
E 16 96 7
E 17 90 8
E 17 98 5
E 17 100 7
E 18 19 1
E 18 91 1
E 19 21 15
E 19 92 1
E 20 21 1
E 20 89 17
E 20 92 15
E 20 101 7
E 21 102 7
E 22 23 1
E 22 65 7
E 22 70 1
E 22 73 1
E 23 25 15
E 23 71 1
E 23 76 1
E 24 25 1
E 24 71 15
E 24 84 5
E 24 93 7
E 25 87 1
E 25 94 7
E 26 27 1
E 26 51 7
E 26 58 1
E 27 29 15
E 27 60 1
E 28 29 1
E 28 77 7
E 29 68 1
E 29 79 7
E 30 31 1
E 30 55 1
E 31 33 15
E 31 57 1
E 32 33 1
E 32 57 15
E 32 65 1
E 32 73 7
E 33 75 7
E 34 35 1
E 34 44 7
E 34 48 1
E 34 52 17
E 35 37 15
E 35 50 1
E 35 54 17
E 36 37 1
E 36 50 15
E 36 51 1
E 36 58 7
E 37 59 7
E 37 64 17
E 38 39 1
E 38 45 1
E 39 41 15
E 39 46 1
E 40 41 1
E 40 44 18
E 40 46 15
E 40 53 7
E 41 55 7
E 42 43 1
E 42 45 18
E 43 44 15
E 43 46 18
E 45 46 1
E 47 48 1
E 47 49 1
E 48 50 1
E 49 50 1
E 49 51 15
E 52 53 1
E 52 54 1
E 53 55 1
E 53 56 1
E 54 56 1
E 54 64 15
E 55 57 1
E 56 57 1
E 56 65 15
E 58 59 1
E 58 60 1
E 59 61 1
E 59 62 2
E 60 61 1
E 60 68 15
E 61 63 2
E 61 69 15
E 62 63 1
E 62 66 10
E 63 67 10
E 63 72 15
E 64 65 1
E 64 70 7
E 66 67 1
E 66 70 5
E 67 71 5
E 67 84 15
E 68 69 1
E 69 72 2
E 70 71 1
E 72 82 7
E 72 84 10
E 73 75 1
E 73 76 1
E 74 85 10
E 75 78 1
E 75 91 17
E 76 78 1
E 76 87 15
E 77 79 1
E 77 80 1
E 78 89 15
E 78 92 17
E 79 81 1
E 79 82 4
E 80 81 1
E 80 85 8
E 81 83 4
E 81 86 8
E 82 83 1
E 82 88 10
E 83 90 10
E 84 88 7
E 85 86 1
E 87 89 1
E 88 90 1
E 88 93 5
E 90 95 5
E 91 92 1
E 93 94 1
E 93 95 1
E 94 97 1
E 94 101 19
E 95 97 1
E 95 98 8
E 96 100 10
E 97 99 8
E 97 103 19
E 98 99 1
E 99 107 19
E 101 102 1
E 101 103 1
E 102 104 1
E 102 105 7
E 103 104 1
E 103 107 8
E 104 106 7
E 104 108 8
E 105 106 1
E 106 109 8
E 107 108 1
E 108 109 7
E 109 110 1
E 111 112 1
E 1 113 100000
E 2 113 100000
E 3 113 100000
E 4 114 100000
E 5 114 100000
E 6 114 100000
E 7 114 100000
E 8 115 100000
E 9 115 100000
E 10 115 100000
E 11 115 100000
E 12 116 100000
E 13 116 100000
E 14 116 100000
E 15 116 100000
E 16 117 100000
E 17 117 100000
E 18 118 100000
E 19 118 100000
E 20 118 100000
E 21 118 100000
E 22 119 100000
E 23 119 100000
E 24 119 100000
E 25 119 100000
E 26 120 100000
E 27 120 100000
E 28 120 100000
E 29 120 100000
E 30 121 100000
E 31 121 100000
E 32 121 100000
E 33 121 100000
E 34 122 100000
E 35 122 100000
E 36 122 100000
E 37 122 100000
E 38 123 100000
E 39 123 100000
E 40 123 100000
E 41 123 100000
END

SECTION Terminals
Terminals 11
T 113
T 114
T 115
T 116
T 117
T 118
T 119
T 120
T 121
T 122
T 123
END

EOF
